0 0
1 0
2 0
3 0
4 0
5 0
6 0
7 0
8 0
9 0
10 0
11 0
12 0
13 0
14 0
15 0
16 0
17 0
18 0
19 0
20 0
21 0
22 0
23 0
24 0
25 0
26 0
27 0
28 0
29 0
30 0
31 0
32 0
33 0
34 0
35 0
36 0
37 0
38 0
39 0
40 0
41 0
42 0
43 0
44 0
0 1
3 1
1 1
7 1
6 1
11 1
10 1
5 1
14 1
2 1
4 1
8 1
9 1
18 1
15 1
12 1
13 1
24 1
22 1
16 1
17 1
19 1
23 1
41 1
29 1
20 1
27 1
-1 -1
25 1
26 1
34 1
32 1
31 1
40 1
3 2
28 1
36 1
30 1
35 1
37 1
44 1
-1 -1
39 1
42 1
21 1
38 1
7 2
11 2
33 1
6 2
1 2
18 2
-1 -1
34 2
3 3
-1 -1
4 2
14 2
43 1
-1 -1
13 2
2 2
-1 -1
-1 -1
-1 -1
-1 -1
44 2
8 2
-1 -1
26 2
12 2
20 2
9 2
-1 -1
15 2
16 2
0 2
27 2
32 2
25 2
38 2
23 2
28 2
17 2
-1 -1
35 2
39 2
24 2
30 2
40 2
27 3
21 2
31 2
10 2
19 2
33 2
29 2
18 3
36 2
41 2
6 3
37 2
7 3
-1 -1
4 3
1 3
-1 -1
15 3
-1 -1
42 2
43 2
12 3
5 2
-1 -1
11 3
40 3
13 3
32 3
0 3
-1 -1
-1 -1
-1 -1
-1 -1
-1 -1
-1 -1
20 3
23 3
16 3
-1 -1
-1 -1
-1 -1
-1 -1
29 3
-1 -1
-1 -1
-1 -1
-1 -1
-1 -1
-1 -1
-1 -1
-1 -1
2 3
-1 -1
-1 -1
17 3
30 3
34 3
-1 -1
-1 -1
26 3
22 2
-1 -1
37 3
-1 -1
-1 -1
24 3
28 3
-1 -1
15 4
8 3
9 3
14 3
43 3
-1 -1
13 4
-1 -1
31 3
-1 -1
-1 -1
19 3
39 3
7 4
25 3
20 4
35 3
-1 -1
33 3
2 4
23 4
16 4
-1 -1
-1 -1
-1 -1
-1 -1
-1 -1
31 4
-1 -1
8 4
5 3
38 3
3 4
-1 -1
21 3
37 4
32 4
-1 -1
-1 -1
41 3
-1 -1
20 5
36 3
22 3
12 4
10 3
-1 -1
-1 -1
19 4
1 4
-1 -1
-1 -1
-1 -1
41 4
0 4
44 3
-1 -1
-1 -1
-1 -1
42 3
-1 -1
-1 -1
-1 -1
14 4
-1 -1
-1 -1
-1 -1
-1 -1
35 4
-1 -1
6 4
-1 -1
-1 -1
-1 -1
-1 -1
-1 -1
-1 -1
-1 -1
-1 -1
-1 -1
39 4
-1 -1
25 4
-1 -1
3 5
-1 -1
5 4
-1 -1
11 4
-1 -1
-1 -1
38 4
23 5
21 4
-1 -1
-1 -1
-1 -1
8 5
17 4
43 4
-1 -1
-1 -1
-1 -1
18 4
-1 -1
-1 -1
-1 -1
26 4
-1 -1
-1 -1
29 4
-1 -1
-1 -1
-1 -1
4 4
-1 -1
-1 -1
-1 -1
-1 -1
-1 -1
-1 -1
-1 -1
9 4
-1 -1
-1 -1
-1 -1
-1 -1
-1 -1
19 5
16 5
-1 -1
44 4
-1 -1
-1 -1
-1 -1
-1 -1
-1 -1
-1 -1
-1 -1
2 5
-1 -1
34 4
-1 -1
-1 -1
0 5
-1 -1
-1 -1
-1 -1
-1 -1
-1 -1
-1 -1
-1 -1
-1 -1
16 6
-1 -1
-1 -1
-1 -1
-1 -1
-1 -1
-1 -1
35 5
-1 -1
-1 -1
-1 -1
-1 -1
-1 -1
-1 -1
-1 -1
-1 -1
-1 -1
-1 -1
-1 -1
37 5
-1 -1
-1 -1
-1 -1
-1 -1
41 5
-1 -1
-1 -1
-1 -1
-1 -1
28 4
30 4
-1 -1
21 5
-1 -1
-1 -1
-1 -1
-1 -1
29 5
-1 -1
-1 -1
-1 -1
-1 -1
-1 -1
-1 -1
